/*********************************************
 * OPL 12.6.0.0 Data
 * Author: Adrian Rodriguez Bazaga, Pau Rodriguez Esmerats
 * Creation Date: 06/12/2017 at 23:02:53
 *********************************************/

nNurses=54;
maxConsec=2;
maxPresence=7;
maxHours=5;
minHours=1;
hours=24;
demand= [9 8 14 16 8 14 16 10 11 10 3 3 3 4 4 2 3 1 1 1 4 7 4 7  ];
